50
1 0 97
2 0 85
2 1 49
3 0 71
3 1 107
3 2 1
4 0 18
4 1 100
4 2 35
4 3 11
5 0 68
5 1 17
5 2 94
5 3 58
5 4 37
6 0 115
6 1 101
6 2 11
6 3 103
6 4 53
6 5 27
7 0 40
7 1 59
7 2 36
7 3 48
7 4 10
7 5 1
7 6 50
8 0 1
8 1 74
8 2 2
8 3 104
8 4 105
8 5 86
8 6 8
8 7 31
9 0 30
9 1 65
9 2 101
9 3 80
9 4 45
9 5 18
9 6 6
9 7 52
9 8 54
10 0 73
10 1 114
10 2 76
10 3 85
10 4 118
10 5 66
10 6 6
10 7 12
10 8 104
10 9 102
11 0 114
11 1 89
11 2 25
11 3 97
11 4 108
11 5 43
11 6 46
11 7 96
11 8 60
11 9 6
11 10 116
12 0 90
12 1 99
12 2 44
12 3 83
12 4 33
12 5 94
12 6 53
12 7 39
12 8 54
12 9 103
12 10 72
12 11 78
13 0 10
13 1 102
13 2 98
13 3 89
13 4 70
13 5 71
13 6 97
13 7 16
13 8 93
13 9 93
13 10 97
13 11 84
13 12 40
14 0 42
14 1 7
14 2 24
14 3 78
14 4 16
14 5 98
14 6 114
14 7 28
14 8 74
14 9 37
14 10 5
14 11 9
14 12 3
14 13 100
15 0 109
15 1 58
15 2 28
15 3 18
15 4 52
15 5 50
15 6 7
15 7 76
15 8 83
15 9 25
15 10 108
15 11 4
15 12 6
15 13 32
15 14 114
16 0 87
16 1 40
16 2 24
16 3 43
16 4 81
16 5 16
16 6 38
16 7 3
16 8 90
16 9 69
16 10 72
16 11 114
16 12 113
16 13 9
16 14 56
16 15 42
17 0 73
17 1 106
17 2 3
17 3 106
17 4 109
17 5 56
17 6 72
17 7 96
17 8 115
17 9 7
17 10 80
17 11 93
17 12 52
17 13 108
17 14 75
17 15 85
17 16 68
18 0 118
18 1 105
18 2 114
18 3 105
18 4 37
18 5 26
18 6 57
18 7 116
18 8 7
18 9 74
18 10 10
18 11 40
18 12 12
18 13 82
18 14 91
18 15 112
18 16 90
18 17 59
19 0 62
19 1 119
19 2 90
19 3 78
19 4 74
19 5 39
19 6 95
19 7 76
19 8 104
19 9 8
19 10 27
19 11 105
19 12 32
19 13 88
19 14 62
19 15 11
19 16 59
19 17 99
19 18 104
20 0 98
20 1 89
20 2 61
20 3 104
20 4 22
20 5 9
20 6 17
20 7 17
20 8 45
20 9 19
20 10 63
20 11 59
20 12 34
20 13 14
20 14 27
20 15 91
20 16 42
20 17 116
20 18 46
20 19 70
21 0 69
21 1 76
21 2 98
21 3 89
21 4 16
21 5 89
21 6 43
21 7 90
21 8 30
21 9 71
21 10 72
21 11 100
21 12 7
21 13 115
21 14 90
21 15 71
21 16 85
21 17 84
21 18 8
21 19 100
21 20 120
22 0 39
22 1 5
22 2 52
22 3 19
22 4 109
22 5 65
22 6 38
22 7 79
22 8 13
22 9 40
22 10 81
22 11 22
22 12 20
22 13 93
22 14 31
22 15 7
22 16 1
22 17 83
22 18 32
22 19 98
22 20 2
22 21 72
23 0 5
23 1 91
23 2 120
23 3 98
23 4 105
23 5 63
23 6 46
23 7 23
23 8 43
23 9 30
23 10 90
23 11 56
23 12 23
23 13 76
23 14 22
23 15 48
23 16 60
23 17 11
23 18 5
23 19 38
23 20 99
23 21 94
23 22 21
24 0 77
24 1 68
24 2 26
24 3 81
24 4 68
24 5 49
24 6 90
24 7 73
24 8 113
24 9 7
24 10 120
24 11 54
24 12 116
24 13 39
24 14 35
24 15 10
24 16 54
24 17 41
24 18 52
24 19 74
24 20 65
24 21 66
24 22 54
24 23 34
25 0 22
25 1 66
25 2 19
25 3 46
25 4 99
25 5 23
25 6 88
25 7 103
25 8 20
25 9 40
25 10 64
25 11 113
25 12 91
25 13 17
25 14 104
25 15 19
25 16 104
25 17 3
25 18 68
25 19 53
25 20 3
25 21 44
25 22 50
25 23 25
25 24 120
26 0 89
26 1 111
26 2 74
26 3 21
26 4 44
26 5 107
26 6 55
26 7 71
26 8 95
26 9 92
26 10 35
26 11 15
26 12 29
26 13 100
26 14 95
26 15 63
26 16 4
26 17 79
26 18 61
26 19 46
26 20 116
26 21 38
26 22 41
26 23 19
26 24 79
26 25 39
27 0 75
27 1 93
27 2 28
27 3 53
27 4 60
27 5 75
27 6 94
27 7 62
27 8 113
27 9 100
27 10 60
27 11 32
27 12 93
27 13 12
27 14 61
27 15 72
27 16 42
27 17 74
27 18 79
27 19 86
27 20 106
27 21 86
27 22 103
27 23 47
27 24 61
27 25 42
27 26 98
28 0 108
28 1 74
28 2 66
28 3 8
28 4 79
28 5 2
28 6 45
28 7 95
28 8 54
28 9 116
28 10 20
28 11 99
28 12 103
28 13 17
28 14 112
28 15 86
28 16 33
28 17 5
28 18 35
28 19 107
28 20 67
28 21 61
28 22 36
28 23 29
28 24 34
28 25 27
28 26 1
28 27 71
29 0 9
29 1 48
29 2 87
29 3 118
29 4 67
29 5 15
29 6 12
29 7 86
29 8 99
29 9 115
29 10 90
29 11 61
29 12 61
29 13 96
29 14 109
29 15 38
29 16 103
29 17 5
29 18 35
29 19 67
29 20 51
29 21 86
29 22 38
29 23 109
29 24 18
29 25 116
29 26 15
29 27 101
29 28 11
30 0 4
30 1 38
30 2 65
30 3 5
30 4 102
30 5 18
30 6 2
30 7 87
30 8 71
30 9 78
30 10 37
30 11 50
30 12 118
30 13 120
30 14 38
30 15 1
30 16 26
30 17 118
30 18 78
30 19 10
30 20 79
30 21 60
30 22 35
30 23 52
30 24 95
30 25 34
30 26 26
30 27 106
30 28 8
30 29 55
31 0 25
31 1 90
31 2 68
31 3 73
31 4 54
31 5 114
31 6 83
31 7 32
31 8 75
31 9 91
31 10 31
31 11 21
31 12 83
31 13 87
31 14 89
31 15 98
31 16 65
31 17 16
31 18 55
31 19 97
31 20 14
31 21 21
31 22 11
31 23 40
31 24 95
31 25 76
31 26 86
31 27 79
31 28 10
31 29 85
31 30 28
32 0 52
32 1 116
32 2 41
32 3 118
32 4 39
32 5 43
32 6 31
32 7 92
32 8 10
32 9 69
32 10 39
32 11 92
32 12 28
32 13 94
32 14 23
32 15 107
32 16 106
32 17 98
32 18 28
32 19 74
32 20 54
32 21 94
32 22 30
32 23 52
32 24 19
32 25 56
32 26 47
32 27 36
32 28 81
32 29 35
32 30 44
32 31 104
33 0 44
33 1 56
33 2 102
33 3 35
33 4 92
33 5 70
33 6 72
33 7 108
33 8 52
33 9 75
33 10 100
33 11 8
33 12 42
33 13 55
33 14 90
33 15 5
33 16 35
33 17 113
33 18 29
33 19 70
33 20 6
33 21 48
33 22 35
33 23 81
33 24 41
33 25 16
33 26 62
33 27 73
33 28 92
33 29 4
33 30 105
33 31 27
33 32 25
34 0 87
34 1 61
34 2 30
34 3 62
34 4 65
34 5 21
34 6 89
34 7 41
34 8 48
34 9 100
34 10 39
34 11 52
34 12 54
34 13 37
34 14 72
34 15 111
34 16 104
34 17 10
34 18 113
34 19 29
34 20 38
34 21 70
34 22 76
34 23 81
34 24 114
34 25 76
34 26 106
34 27 110
34 28 99
34 29 104
34 30 45
34 31 108
34 32 38
34 33 33
35 0 29
35 1 103
35 2 89
35 3 23
35 4 87
35 5 51
35 6 38
35 7 47
35 8 100
35 9 20
35 10 33
35 11 11
35 12 88
35 13 106
35 14 62
35 15 7
35 16 105
35 17 63
35 18 47
35 19 13
35 20 98
35 21 89
35 22 38
35 23 74
35 24 54
35 25 14
35 26 49
35 27 1
35 28 6
35 29 95
35 30 32
35 31 19
35 32 27
35 33 16
35 34 73
36 0 30
36 1 112
36 2 42
36 3 58
36 4 65
36 5 110
36 6 54
36 7 16
36 8 10
36 9 31
36 10 105
36 11 91
36 12 35
36 13 9
36 14 87
36 15 104
36 16 112
36 17 45
36 18 42
36 19 94
36 20 1
36 21 74
36 22 89
36 23 79
36 24 54
36 25 72
36 26 8
36 27 119
36 28 86
36 29 73
36 30 25
36 31 53
36 32 90
36 33 5
36 34 22
36 35 72
37 0 80
37 1 100
37 2 89
37 3 96
37 4 49
37 5 62
37 6 78
37 7 34
37 8 10
37 9 78
37 10 40
37 11 39
37 12 77
37 13 116
37 14 112
37 15 113
37 16 47
37 17 69
37 18 117
37 19 58
37 20 20
37 21 104
37 22 16
37 23 22
37 24 47
37 25 20
37 26 101
37 27 39
37 28 36
37 29 21
37 30 99
37 31 107
37 32 110
37 33 84
37 34 66
37 35 67
37 36 93
38 0 39
38 1 45
38 2 60
38 3 44
38 4 3
38 5 116
38 6 66
38 7 88
38 8 83
38 9 116
38 10 42
38 11 97
38 12 37
38 13 26
38 14 92
38 15 50
38 16 13
38 17 2
38 18 85
38 19 113
38 20 115
38 21 12
38 22 119
38 23 16
38 24 106
38 25 48
38 26 117
38 27 71
38 28 42
38 29 90
38 30 9
38 31 101
38 32 104
38 33 7
38 34 57
38 35 11
38 36 102
38 37 91
39 0 56
39 1 1
39 2 119
39 3 42
39 4 51
39 5 23
39 6 62
39 7 55
39 8 24
39 9 16
39 10 108
39 11 96
39 12 64
39 13 102
39 14 24
39 15 92
39 16 91
39 17 60
39 18 118
39 19 84
39 20 95
39 21 69
39 22 38
39 23 8
39 24 42
39 25 78
39 26 69
39 27 114
39 28 95
39 29 75
39 30 108
39 31 88
39 32 3
39 33 2
39 34 66
39 35 99
39 36 42
39 37 87
39 38 60
40 0 88
40 1 33
40 2 36
40 3 3
40 4 2
40 5 76
40 6 87
40 7 26
40 8 89
40 9 53
40 10 9
40 11 59
40 12 64
40 13 60
40 14 88
40 15 78
40 16 51
40 17 68
40 18 1
40 19 8
40 20 113
40 21 62
40 22 20
40 23 2
40 24 33
40 25 14
40 26 50
40 27 24
40 28 47
40 29 120
40 30 35
40 31 8
40 32 57
40 33 16
40 34 50
40 35 49
40 36 3
40 37 102
40 38 85
40 39 36
41 0 54
41 1 28
41 2 43
41 3 64
41 4 22
41 5 49
41 6 37
41 7 108
41 8 48
41 9 4
41 10 110
41 11 6
41 12 120
41 13 6
41 14 18
41 15 114
41 16 56
41 17 56
41 18 50
41 19 101
41 20 86
41 21 100
41 22 103
41 23 57
41 24 118
41 25 57
41 26 102
41 27 1
41 28 56
41 29 105
41 30 106
41 31 81
41 32 33
41 33 75
41 34 15
41 35 31
41 36 95
41 37 102
41 38 40
41 39 116
41 40 71
42 0 12
42 1 118
42 2 26
42 3 62
42 4 7
42 5 79
42 6 38
42 7 67
42 8 68
42 9 20
42 10 38
42 11 60
42 12 92
42 13 105
42 14 32
42 15 92
42 16 60
42 17 31
42 18 87
42 19 76
42 20 12
42 21 81
42 22 39
42 23 109
42 24 39
42 25 90
42 26 85
42 27 89
42 28 10
42 29 5
42 30 8
42 31 4
42 32 3
42 33 94
42 34 16
42 35 96
42 36 47
42 37 99
42 38 60
42 39 37
42 40 67
42 41 20
43 0 44
43 1 114
43 2 19
43 3 86
43 4 31
43 5 118
43 6 93
43 7 3
43 8 35
43 9 108
43 10 64
43 11 32
43 12 118
43 13 97
43 14 18
43 15 84
43 16 92
43 17 15
43 18 29
43 19 34
43 20 67
43 21 74
43 22 110
43 23 39
43 24 23
43 25 46
43 26 114
43 27 27
43 28 64
43 29 56
43 30 18
43 31 81
43 32 59
43 33 13
43 34 77
43 35 5
43 36 45
43 37 104
43 38 21
43 39 74
43 40 25
43 41 13
43 42 86
44 0 120
44 1 118
44 2 69
44 3 110
44 4 105
44 5 5
44 6 10
44 7 25
44 8 107
44 9 112
44 10 58
44 11 75
44 12 50
44 13 58
44 14 61
44 15 77
44 16 36
44 17 3
44 18 12
44 19 62
44 20 13
44 21 106
44 22 40
44 23 7
44 24 29
44 25 74
44 26 10
44 27 90
44 28 4
44 29 76
44 30 118
44 31 76
44 32 93
44 33 21
44 34 45
44 35 46
44 36 8
44 37 93
44 38 31
44 39 62
44 40 18
44 41 78
44 42 54
44 43 79
45 0 9
45 1 84
45 2 61
45 3 30
45 4 94
45 5 6
45 6 8
45 7 25
45 8 53
45 9 38
45 10 78
45 11 44
45 12 96
45 13 109
45 14 19
45 15 80
45 16 21
45 17 35
45 18 65
45 19 71
45 20 56
45 21 102
45 22 41
45 23 15
45 24 37
45 25 90
45 26 21
45 27 33
45 28 15
45 29 11
45 30 45
45 31 7
45 32 115
45 33 7
45 34 22
45 35 42
45 36 5
45 37 11
45 38 44
45 39 9
45 40 79
45 41 7
45 42 22
45 43 66
45 44 90
46 0 6
46 1 110
46 2 12
46 3 34
46 4 44
46 5 60
46 6 20
46 7 40
46 8 75
46 9 116
46 10 56
46 11 39
46 12 25
46 13 80
46 14 8
46 15 18
46 16 54
46 17 73
46 18 42
46 19 89
46 20 26
46 21 30
46 22 27
46 23 67
46 24 106
46 25 71
46 26 15
46 27 9
46 28 94
46 29 67
46 30 62
46 31 7
46 32 73
46 33 100
46 34 17
46 35 40
46 36 53
46 37 81
46 38 10
46 39 48
46 40 44
46 41 63
46 42 44
46 43 113
46 44 88
46 45 30
47 0 103
47 1 19
47 2 76
47 3 44
47 4 50
47 5 64
47 6 17
47 7 87
47 8 91
47 9 33
47 10 47
47 11 38
47 12 58
47 13 102
47 14 58
47 15 38
47 16 2
47 17 1
47 18 96
47 19 56
47 20 84
47 21 52
47 22 44
47 23 46
47 24 13
47 25 108
47 26 10
47 27 59
47 28 40
47 29 54
47 30 22
47 31 68
47 32 107
47 33 19
47 34 21
47 35 20
47 36 50
47 37 35
47 38 6
47 39 41
47 40 43
47 41 6
47 42 78
47 43 59
47 44 33
47 45 34
47 46 41
48 0 36
48 1 63
48 2 77
48 3 55
48 4 105
48 5 48
48 6 27
48 7 23
48 8 104
48 9 119
48 10 78
48 11 101
48 12 109
48 13 38
48 14 6
48 15 68
48 16 94
48 17 73
48 18 71
48 19 16
48 20 25
48 21 83
48 22 26
48 23 36
48 24 113
48 25 99
48 26 3
48 27 87
48 28 105
48 29 62
48 30 37
48 31 81
48 32 7
48 33 20
48 34 19
48 35 103
48 36 2
48 37 64
48 38 39
48 39 7
48 40 81
48 41 42
48 42 57
48 43 80
48 44 99
48 45 77
48 46 29
48 47 118
49 0 115
49 1 66
49 2 88
49 3 2
49 4 93
49 5 81
49 6 22
49 7 35
49 8 108
49 9 38
49 10 6
49 11 70
49 12 49
49 13 8
49 14 102
49 15 101
49 16 37
49 17 75
49 18 37
49 19 82
49 20 15
49 21 108
49 22 84
49 23 14
49 24 12
49 25 70
49 26 73
49 27 53
49 28 83
49 29 109
49 30 29
49 31 59
49 32 60
49 33 32
49 34 19
49 35 80
49 36 83
49 37 95
49 38 11
49 39 48
49 40 62
49 41 25
49 42 11
49 43 2
49 44 77
49 45 57
49 46 31
49 47 12
49 48 29
